c nIsolatedPIs 8
c maxPI 56
p cnf 224 505
c gate 57 13 41 0
13 -57 0
41 -57 0
-13 -41 57 0
c gate 58 14 42 0
14 -58 0
42 -58 0
-14 -42 58 0
c gate 59 -57 -58 0
-57 -59 0
-58 -59 0
57 58 59 0
c gate 60 12 40 0
12 -60 0
40 -60 0
-12 -40 60 0
c gate 61 11 39 0
11 -61 0
39 -61 0
-11 -39 61 0
c gate 62 -11 -39 0
-11 -62 0
-39 -62 0
11 39 62 0
c gate 63 10 38 0
10 -63 0
38 -63 0
-10 -38 63 0
c gate 64 9 37 0
9 -64 0
37 -64 0
-9 -37 64 0
c gate 65 -8 -36 0
-8 -65 0
-36 -65 0
8 36 65 0
c gate 66 -6 -34 0
-6 -66 0
-34 -66 0
6 34 66 0
c gate 67 -7 -35 0
-7 -67 0
-35 -67 0
7 35 67 0
c gate 68 -66 -67 0
-66 -68 0
-67 -68 0
66 67 68 0
c gate 69 5 33 0
5 -69 0
33 -69 0
-5 -33 69 0
c gate 70 6 34 0
6 -70 0
34 -70 0
-6 -34 70 0
c gate 71 -69 -70 0
-69 -71 0
-70 -71 0
69 70 71 0
c gate 72 68 -71 0
68 -72 0
-71 -72 0
-68 71 72 0
c gate 73 7 35 0
7 -73 0
35 -73 0
-7 -35 73 0
c gate 74 8 36 0
8 -74 0
36 -74 0
-8 -36 74 0
c gate 75 -73 -74 0
-73 -75 0
-74 -75 0
73 74 75 0
c gate 76 -72 75 0
-72 -76 0
75 -76 0
72 -75 76 0
c gate 77 -65 -76 0
-65 -77 0
-76 -77 0
65 76 77 0
c gate 78 -64 -77 0
-64 -78 0
-77 -78 0
64 77 78 0
c gate 79 -9 -37 0
-9 -79 0
-37 -79 0
9 37 79 0
c gate 80 -10 -38 0
-10 -80 0
-38 -80 0
10 38 80 0
c gate 81 -79 -80 0
-79 -81 0
-80 -81 0
79 80 81 0
c gate 82 -78 81 0
-78 -82 0
81 -82 0
78 -81 82 0
c gate 83 -63 -82 0
-63 -83 0
-82 -83 0
63 82 83 0
c gate 84 -62 -83 0
-62 -84 0
-83 -84 0
62 83 84 0
c gate 85 -61 -84 0
-61 -85 0
-84 -85 0
61 84 85 0
c gate 86 2 30 0
2 -86 0
30 -86 0
-2 -30 86 0
c gate 87 1 29 0
1 -87 0
29 -87 0
-1 -29 87 0
c gate 88 -86 -87 0
-86 -88 0
-87 -88 0
86 87 88 0
c gate 89 -3 -31 0
-3 -89 0
-31 -89 0
3 31 89 0
c gate 90 -2 -30 0
-2 -90 0
-30 -90 0
2 30 90 0
c gate 91 -89 -90 0
-89 -91 0
-90 -91 0
89 90 91 0
c gate 92 -88 91 0
-88 -92 0
91 -92 0
88 -91 92 0
c gate 93 3 31 0
3 -93 0
31 -93 0
-3 -31 93 0
c gate 94 4 32 0
4 -94 0
32 -94 0
-4 -32 94 0
c gate 95 -93 -94 0
-93 -95 0
-94 -95 0
93 94 95 0
c gate 96 -92 95 0
-92 -96 0
95 -96 0
92 -95 96 0
c gate 97 -5 -33 0
-5 -97 0
-33 -97 0
5 33 97 0
c gate 98 -4 -32 0
-4 -98 0
-32 -98 0
4 32 98 0
c gate 99 -65 -98 0
-65 -99 0
-98 -99 0
65 98 99 0
c gate 100 -97 99 0
-97 -100 0
99 -100 0
97 -99 100 0
c gate 101 68 100 0
68 -101 0
100 -101 0
-68 -100 101 0
c gate 102 -96 101 0
-96 -102 0
101 -102 0
96 -101 102 0
c gate 103 76 102 0
76 -103 0
102 -103 0
-76 -102 103 0
c gate 104 -64 -79 0
-64 -104 0
-79 -104 0
64 79 104 0
c gate 105 -62 -80 0
-62 -105 0
-80 -105 0
62 80 105 0
c gate 106 104 105 0
104 -106 0
105 -106 0
-104 -105 106 0
c gate 107 103 106 0
103 -107 0
106 -107 0
-103 -106 107 0
c gate 108 85 -107 0
85 -108 0
-107 -108 0
-85 107 108 0
c gate 109 -60 108 0
-60 -109 0
108 -109 0
60 -108 109 0
c gate 110 -13 -41 0
-13 -110 0
-41 -110 0
13 41 110 0
c gate 111 -57 -110 0
-57 -111 0
-110 -111 0
57 110 111 0
c gate 112 -12 -40 0
-12 -112 0
-40 -112 0
12 40 112 0
c gate 113 111 -112 0
111 -113 0
-112 -113 0
-111 112 113 0
c gate 114 -109 113 0
-109 -114 0
113 -114 0
109 -113 114 0
c gate 115 59 -114 0
59 -115 0
-114 -115 0
-59 114 115 0
c gate 116 -16 -44 0
-16 -116 0
-44 -116 0
16 44 116 0
c gate 117 16 44 0
16 -117 0
44 -117 0
-16 -44 117 0
c gate 118 15 43 0
15 -118 0
43 -118 0
-15 -43 118 0
c gate 119 -117 -118 0
-117 -119 0
-118 -119 0
117 118 119 0
c gate 120 -116 -119 0
-116 -120 0
-119 -120 0
116 119 120 0
c gate 121 115 -120 0
115 -121 0
-120 -121 0
-115 120 121 0
c gate 122 -15 -43 0
-15 -122 0
-43 -122 0
15 43 122 0
c gate 123 -118 -122 0
-118 -123 0
-122 -123 0
118 122 123 0
c gate 124 -116 -117 0
-116 -124 0
-117 -124 0
116 117 124 0
c gate 125 -14 -42 0
-14 -125 0
-42 -125 0
14 42 125 0
c gate 126 124 -125 0
124 -126 0
-125 -126 0
-124 125 126 0
c gate 127 123 126 0
123 -127 0
126 -127 0
-123 -126 127 0
c gate 128 -120 -127 0
-120 -128 0
-127 -128 0
120 127 128 0
c gate 129 17 45 0
17 -129 0
45 -129 0
-17 -45 129 0
c gate 130 18 46 0
18 -130 0
46 -130 0
-18 -46 130 0
c gate 131 -129 -130 0
-129 -131 0
-130 -131 0
129 130 131 0
c gate 132 -20 -48 0
-20 -132 0
-48 -132 0
20 48 132 0
c gate 133 -17 -45 0
-17 -133 0
-45 -133 0
17 45 133 0
c gate 134 -132 -133 0
-132 -134 0
-133 -134 0
132 133 134 0
c gate 135 131 134 0
131 -135 0
134 -135 0
-131 -134 135 0
c gate 136 -18 -46 0
-18 -136 0
-46 -136 0
18 46 136 0
c gate 137 -19 -47 0
-19 -137 0
-47 -137 0
19 47 137 0
c gate 138 -136 -137 0
-136 -138 0
-137 -138 0
136 137 138 0
c gate 139 19 47 0
19 -139 0
47 -139 0
-19 -47 139 0
c gate 140 20 48 0
20 -140 0
48 -140 0
-20 -48 140 0
c gate 141 -139 -140 0
-139 -141 0
-140 -141 0
139 140 141 0
c gate 142 138 141 0
138 -142 0
141 -142 0
-138 -141 142 0
c gate 143 135 142 0
135 -143 0
142 -143 0
-135 -142 143 0
c gate 144 -128 143 0
-128 -144 0
143 -144 0
128 -143 144 0
c gate 145 -121 144 0
-121 -145 0
144 -145 0
121 -144 145 0
c gate 146 -131 138 0
-131 -146 0
138 -146 0
131 -138 146 0
c gate 147 141 -146 0
141 -147 0
-146 -147 0
-141 146 147 0
c gate 148 -132 -147 0
-132 -148 0
-147 -148 0
132 147 148 0
c gate 149 -145 -148 0
-145 -149 0
-148 -149 0
145 148 149 0
c gate 150 22 50 0
22 -150 0
50 -150 0
-22 -50 150 0
c gate 151 21 49 0
21 -151 0
49 -151 0
-21 -49 151 0
c gate 152 -150 -151 0
-150 -152 0
-151 -152 0
150 151 152 0
c gate 153 -24 -52 0
-24 -153 0
-52 -153 0
24 52 153 0
c gate 154 -21 -49 0
-21 -154 0
-49 -154 0
21 49 154 0
c gate 155 -153 -154 0
-153 -155 0
-154 -155 0
153 154 155 0
c gate 156 152 155 0
152 -156 0
155 -156 0
-152 -155 156 0
c gate 157 23 51 0
23 -157 0
51 -157 0
-23 -51 157 0
c gate 158 24 52 0
24 -158 0
52 -158 0
-24 -52 158 0
c gate 159 -157 -158 0
-157 -159 0
-158 -159 0
157 158 159 0
c gate 160 -22 -50 0
-22 -160 0
-50 -160 0
22 50 160 0
c gate 161 -23 -51 0
-23 -161 0
-51 -161 0
23 51 161 0
c gate 162 -160 -161 0
-160 -162 0
-161 -162 0
160 161 162 0
c gate 163 159 162 0
159 -163 0
162 -163 0
-159 -162 163 0
c gate 164 156 163 0
156 -164 0
163 -164 0
-156 -163 164 0
c gate 165 -149 164 0
-149 -165 0
164 -165 0
149 -164 165 0
c gate 166 -152 162 0
-152 -166 0
162 -166 0
152 -162 166 0
c gate 167 159 -166 0
159 -167 0
-166 -167 0
-159 166 167 0
c gate 168 -153 -167 0
-153 -168 0
-167 -168 0
153 167 168 0
c gate 169 165 -168 0
165 -169 0
-168 -169 0
-165 168 169 0
c gate 170 -27 -55 0
-27 -170 0
-55 -170 0
27 55 170 0
c gate 171 27 55 0
27 -171 0
55 -171 0
-27 -55 171 0
c gate 172 -170 -171 0
-170 -172 0
-171 -172 0
170 171 172 0
c gate 173 -26 -54 0
-26 -173 0
-54 -173 0
26 54 173 0
c gate 174 26 54 0
26 -174 0
54 -174 0
-26 -54 174 0
c gate 175 -173 -174 0
-173 -175 0
-174 -175 0
173 174 175 0
c gate 176 172 175 0
172 -176 0
175 -176 0
-172 -175 176 0
c gate 177 28 -56 0
28 -177 0
-56 -177 0
-28 56 177 0
c gate 178 -28 56 0
-28 -178 0
56 -178 0
28 -56 178 0
c gate 179 -177 -178 0
-177 -179 0
-178 -179 0
177 178 179 0
c gate 180 25 -53 0
25 -180 0
-53 -180 0
-25 53 180 0
c gate 181 -25 53 0
-25 -181 0
53 -181 0
25 -53 181 0
c gate 182 -180 -181 0
-180 -182 0
-181 -182 0
180 181 182 0
c gate 183 -179 -182 0
-179 -183 0
-182 -183 0
179 182 183 0
c gate 184 176 183 0
176 -184 0
183 -184 0
-176 -183 184 0
c gate 185 168 184 0
168 -185 0
184 -185 0
-168 -184 185 0
c gate 186 -165 -185 0
-165 -186 0
-185 -186 0
165 185 186 0
c gate 187 121 127 0
121 -187 0
127 -187 0
-121 -127 187 0
c gate 188 -60 -112 0
-60 -188 0
-112 -188 0
60 112 188 0
c gate 189 -61 105 0
-61 -189 0
105 -189 0
61 -105 189 0
c gate 190 188 189 0
188 -190 0
189 -190 0
-188 -189 190 0
c gate 191 108 190 0
108 -191 0
190 -191 0
-108 -190 191 0
c gate 192 -114 -191 0
-114 -192 0
-191 -192 0
114 191 192 0
c gate 193 61 -112 0
61 -193 0
-112 -193 0
-61 112 193 0
c gate 194 -60 -193 0
-60 -194 0
-193 -194 0
60 193 194 0
c gate 195 -190 194 0
-190 -195 0
194 -195 0
190 -194 195 0
c gate 196 111 -195 0
111 -196 0
-195 -196 0
-111 195 196 0
c gate 197 -192 -196 0
-192 -197 0
-196 -197 0
192 196 197 0
c gate 198 -191 -197 0
-191 -198 0
-197 -198 0
191 197 198 0
c gate 199 -63 104 0
-63 -199 0
104 -199 0
63 -104 199 0
c gate 200 189 199 0
189 -200 0
199 -200 0
-189 -199 200 0
c gate 201 103 -200 0
103 -201 0
-200 -201 0
-103 200 201 0
c gate 202 107 -188 0
107 -202 0
-188 -202 0
-107 188 202 0
c gate 203 85 202 0
85 -203 0
202 -203 0
-85 -202 203 0
c gate 204 -201 -203 0
-201 -204 0
-203 -204 0
201 203 204 0
c gate 205 103 204 0
103 -205 0
204 -205 0
-103 -204 205 0
c gate 206 198 -205 0
198 -206 0
-205 -206 0
-198 205 206 0
c gate 207 -115 -125 0
-115 -207 0
-125 -207 0
115 125 207 0
c gate 208 59 -196 0
59 -208 0
-196 -208 0
-59 196 208 0
c gate 209 126 -208 0
126 -209 0
-208 -209 0
-126 208 209 0
c gate 210 -207 -209 0
-207 -210 0
-209 -210 0
207 209 210 0
c gate 211 -124 208 0
-124 -211 0
208 -211 0
124 -208 211 0
c gate 212 207 -211 0
207 -212 0
-211 -212 0
-207 211 212 0
c gate 213 123 -212 0
123 -213 0
-212 -213 0
-123 212 213 0
c gate 214 -210 213 0
-210 -214 0
213 -214 0
210 -213 214 0
c gate 215 -206 -214 0
-206 -215 0
-214 -215 0
206 214 215 0
c gate 216 -187 -215 0
-187 -216 0
-215 -216 0
187 215 216 0
c gate 217 -144 -216 0
-144 -217 0
-216 -217 0
144 216 217 0
c gate 218 -148 -164 0
-148 -218 0
-164 -218 0
148 164 218 0
c gate 219 145 -218 0
145 -219 0
-218 -219 0
-145 218 219 0
c gate 220 -217 -219 0
-217 -220 0
-219 -220 0
217 219 220 0
c gate 221 -186 -220 0
-186 -221 0
-220 -221 0
186 220 221 0
c gate 222 -169 221 0
-169 -222 0
221 -222 0
169 -221 222 0
c gate 223 169 -221 0
169 -223 0
-221 -223 0
-169 221 223 0
c gate 224 -222 -223 0
-222 -224 0
-223 -224 0
222 223 224 0
c PO
-224 0
